--- Job gamsJupyter7.gms Start 12/06/20 22:54:36 32.2.0 rc62c018 WEX-WEI x86 64bit/MS Windows
--- Applying:
    D:\GAMS\gmsprmNT.txt
--- GAMS Parameters defined
    LP CPLEX
    MIP CPLEX
    RMIP CPLEX
    NLP CONOPT
    MCP PATH
    MPEC NLPEC
    RMPEC NLPEC
    CNS CONOPT
    DNLP CONOPT
    RMINLP CONOPT
    MINLP DICOPT
    QCP CONOPT
    MIQCP SBB
    RMIQCP CONOPT
    EMP JAMS
    Restart D:\Github\CS524-Final-Project\_gams_py_gcp0.g00
    Input D:\Github\CS524-Final-Project\gamsJupyter7.gms
    Output D:\Github\CS524-Final-Project\gamsJupyter7.lst
    Save D:\Github\CS524-Final-Project\_gams_py_gcp6.g0?
    ScrDir D:\Github\CS524-Final-Project\225a\
    SysDir D:\GAMS\
    CurDir D:\Github\CS524-Final-Project\
    LogOption 3
    LogFile D:\Github\CS524-Final-Project\gamsJupyter7.log
    Trace D:\Github\CS524-Final-Project\gamsJupyter7.trc
    TraceOpt 3
    GDX D:\Github\CS524-Final-Project\_gams_py_gdb6.gdx
GAMS 32.2.0   Copyright (C) 1987-2020 GAMS Development. All rights reserved
Licensee: Introduction to Optimization (CS/ISyE/ECE 524) S200826/0001AB-GEN
          University of Wisconsin-Madison, Computer Sciences Dept.   DCE850
          C:\Users\Jack Cai\Documents\GAMS\gamslice.txt
          Evaluation license: Not for commercial or production use
--- Starting continued compilation
--- Workfile was generated under GAMS version WEX322-322
--- gamsJupyter7.gms(61) 3 Mb
--- Starting execution: elapsed 0:00:00.009
--- gamsJupyter7.gms(105) 4 Mb
--- Generating MIP model sr3
--- gamsJupyter7.gms(158) 4 Mb
---   2,001 rows  2,091 columns  5,971 non-zeroes
---   2,090 discrete-columns
--- Executing CPLEX (Solvelink=2): elapsed 0:00:00.044

IBM ILOG CPLEX   32.2.0 rc62c018 Released Aug 26, 2020 WEI x86 64bit/MS Window
--- GAMS/Cplex Link licensed for continuous and discrete problems.
Cplex 12.10.0.0

Reading data...
Starting Cplex...
Space for names approximately 0.09 Mb
Use option 'names no' to turn use of names off
Version identifier: 12.10.0.0 | 2019-11-26 | 843d4de2ae
CPXPARAM_Advance                                 0
CPXPARAM_Threads                                 1
CPXPARAM_Parallel                                1
CPXPARAM_MIP_Display                             4
CPXPARAM_MIP_Tolerances_AbsMIPGap                0
CPXPARAM_WorkDir                                 "D:\Github\CS524-Final-Project\225a\"
Tried aggregator 3 times.
MIP Presolve eliminated 1001 rows and 1021 columns.
MIP Presolve modified 3772 coefficients.
Aggregator did 894 substitutions.
Reduced MIP has 106 rows, 141 columns, and 547 nonzeros.
Reduced MIP has 141 binaries, 0 generals, 0 SOSs, and 0 indicators.
Presolve time = 0.02 sec. (5.17 ticks)
Found incumbent of value 70.000000 after 0.02 sec. (5.74 ticks)
Probing time = 0.00 sec. (0.38 ticks)
Tried aggregator 2 times.
Detecting symmetries...
MIP Presolve eliminated 7 rows and 7 columns.
MIP Presolve modified 1 coefficients.
Aggregator did 1 substitutions.
Reduced MIP has 98 rows, 133 columns, and 481 nonzeros.
Reduced MIP has 133 binaries, 0 generals, 0 SOSs, and 0 indicators.
Presolve time = 0.00 sec. (0.64 ticks)
Probing time = 0.00 sec. (0.31 ticks)
Clique table members: 299.
MIP emphasis: balance optimality and feasibility.
MIP search method: dynamic search.
Parallel mode: none, using 1 thread.
Tried aggregator 1 time.
No LP presolve or aggregator reductions.
Presolve time = 0.00 sec. (0.06 ticks)
Initializing dual steep norms . . .

Iteration log . . .
Iteration:     1   Dual objective     =             0.000000
Perturbation started.
Iteration:    51   Dual objective     =             0.000000
Removing perturbation.
Root relaxation solution time = 0.00 sec. (0.58 ticks)

        Nodes                                         Cuts/
   Node  Left     Objective  IInf  Best Integer    Best Bound    ItCnt     Gap

*     0+    0                           68.0000        0.0000           100.00%
Found incumbent of value 68.000000 after 0.02 sec. (8.18 ticks)
      0     0        0.0000    59       68.0000        0.0000       64  100.00%
*     0+    0                           20.0000        0.0000           100.00%
Found incumbent of value 20.000000 after 0.02 sec. (8.37 ticks)
*     0+    0                            0.0000        0.0000             0.00%
Found incumbent of value 0.000000 after 0.03 sec. (11.19 ticks)
      0     0        cutoff              0.0000        0.0000       64    0.00%
Elapsed time = 0.03 sec. (11.19 ticks, tree = 0.01 MB, solutions = 4)

Root node processing (before b&c):
  Real time             =    0.03 sec. (11.29 ticks)
Sequential b&c:
  Real time             =    0.00 sec. (0.00 ticks)
                          ------------
Total (root+branch&cut) =    0.03 sec. (11.29 ticks)
MIP status(101): integer optimal solution
Cplex Time: 0.03sec (det. 11.29 ticks)
Fixing integer variables, and solving final LP...
Version identifier: 12.10.0.0 | 2019-11-26 | 843d4de2ae
CPXPARAM_Advance                                 2
CPXPARAM_Threads                                 1
CPXPARAM_Parallel                                1
CPXPARAM_MIP_Display                             4
CPXPARAM_MIP_Tolerances_AbsMIPGap                0
CPXPARAM_WorkDir                                 "D:\Github\CS524-Final-Project\225a\"
Tried aggregator 1 time.
LP Presolve eliminated 2001 rows and 2091 columns.
All rows and columns eliminated.
Presolve time = 0.00 sec. (0.91 ticks)
Fixed MIP status(1): optimal
Cplex Time: 0.00sec (det. 1.55 ticks)

Proven optimal solution.

MIP Solution:            0.000000    (64 iterations, 0 nodes)
Final Solve:             0.000000    (0 iterations)

Best possible:           0.000000
Absolute gap:            0.000000
Relative gap:            0.000000

--- Reading solution for model sr3
--- Executing after solve: elapsed 0:00:00.119
--- gamsJupyter7.gms(160) 4 Mb
--- GDX File D:\Github\CS524-Final-Project\_gams_py_gdb6.gdx
*** Status: Normal completion
--- Job gamsJupyter7.gms Stop 12/06/20 22:54:36 elapsed 0:00:00.133
